WARNING: for repeatability, setting FPU to use double precision
 -----------------------------------------------------------------------------------------------------------------------
|                                 manysat2.0    4 thread(s) on 8 core(s)                                                |
 -----------------------------------------------------------------------------------------------------------------------
 ===============================================[ Problem Statistics ]==================================================
|                                                                                                                       |
|  Number of cores:                 4                                                                                   |
|  Number of variables:          6944                                                                                   |
|  Number of clauses:           66621                                                                                   |
|  Parse time:                   0.04 s                                                                                 |
|                                                                                                                       |
 ==============================================[ Search Statistics ]====================================================
|   Thread  | Conflicts |          ORIGINAL         |          LEARNT          |  exported  / imported      |  Progress |
|    (id)   |           |    Vars  Clauses Literals |    Limit  Clauses Lit/Cl |  (clauses by restart)      |           |
 =======================================================================================================================
|         2 |       100 |    6856    66101   186844 |    24427      155     21 |          89  -          55 |  1.267 %  |
|         0 |       100 |    6810    66101   186844 |    24237      180     19 |           0  -          81 |  1.931 %  |
|         3 |       100 |    6856    66101   186844 |    24427      187     29 |          89  -          87 |  1.267 %  |
|         1 |       100 |    6856    66101   186844 |    24427      203     16 |          89  -         103 |  1.267 %  |
|         2 |       250 |    6810    66101   186844 |    26870      388     21 |          89  -         138 |  1.930 %  |
|         0 |       250 |    6810    66101   186844 |    26660      405     22 |           0  -         156 |  1.930 %  |
|         3 |       250 |    6810    66101   186844 |    26870      413     27 |          89  -         163 |  1.931 %  |
|         1 |       250 |    6810    66101   186844 |    26870      438     14 |          89  -         188 |  1.930 %  |
|         2 |       475 |    6810    66101   186844 |    29557      774     19 |          89  -         299 |  1.930 %  |
|         3 |       475 |    6810    66101   186844 |    29557      823     22 |          89  -         346 |  1.931 %  |
|         1 |       475 |    6810    65421   185138 |    29557      830     14 |          89  -         358 |  1.930 %  |
|         0 |       475 |    6810    65421   185138 |    29326      859     19 |           0  -         387 |  1.931 %  |
|         3 |       812 |    6810    65421   185138 |    32513     1369     22 |         270  -         557 |  1.931 %  |
|         0 |       812 |    6809    65413   185122 |    32259     1465     21 |         135  -         657 |  1.944 %  |
|         1 |       812 |    6751    64494   182785 |    32513     1435     16 |         135  -         659 |  2.779 %  |
|         2 |       812 |    6810    65421   185138 |    32513     1417     18 |         270  -         608 |  1.931 %  |
|         3 |      1318 |    6751    64494   182785 |    35764     2079     24 |         270  -         807 |  2.780 %  |
|         0 |      1318 |    6751    65413   185122 |    35485     2176     24 |         135  -         862 |  2.780 %  |
|         2 |      1318 |    6751    64494   182785 |    35764     2125     22 |         270  -         839 |  2.779 %  |
|         1 |      1318 |    6751    64494   182785 |    35764     2200     20 |         135  -         917 |  2.780 %  |
|         1 |      2077 |    6751    64494   182785 |    39341     3215     25 |         135  -        1173 |  2.779 %  |
|         0 |      2077 |    6751    64494   182785 |    39033     3224     25 |         135  -        1178 |  2.781 %  |
|         3 |      2077 |    6751    64494   182785 |    39341     3236     26 |         270  -        1205 |  2.780 %  |
|         2 |      2077 |    6751    64494   182785 |    39341     3270     20 |         270  -        1225 |  2.779 %  |
|         0 |      3216 |    6751    64494   182785 |    42937     4692     35 |         135  -        1506 |  2.780 %  |
|         3 |      3216 |    6751    64494   182785 |    43275     4693     37 |         270  -        1517 |  2.780 %  |
|         2 |      3216 |    6750    64483   182763 |    43275     4632     24 |         270  -        1447 |  2.798 %  |
|         1 |      3216 |    6751    64494   182785 |    43275     4820     30 |         329  -        1636 |  2.780 %  |
|         0 |      4924 |    6751    64494   182785 |    47231     6793     38 |         329  -        1899 |  2.781 %  |
|         2 |      4924 |    6750    64483   182763 |    47602     6706     31 |         270  -        1811 |  2.795 %  |
|         1 |      4924 |    6750    64483   182763 |    47602     6999     33 |         329  -        2109 |  2.795 %  |
|         3 |      4924 |    6751    64494   182785 |    47602     7034     36 |         524  -        2149 |  2.779 %  |
|         0 |      7486 |    6663    63300   179757 |    51954     9704     39 |         329  -        2586 |  4.047 %  |
|         2 |      7486 |    6750    64483   182763 |    52362    10057     33 |         330  -        2596 |  2.796 %  |
|         3 |      7486 |    6663    63300   179757 |    52362    10192     37 |         672  -        2962 |  4.047 %  |
|         1 |      7486 |    6460    59548   169738 |    52362     6819     33 |         564  -        3003 |  6.970 %  |
|         0 |     11330 |    6173    58657   167589 |    57149    10666     38 |        1024  -        3807 | 11.106 %  |
|         3 |     11330 |    5906    58657   167589 |    57599    11131     38 |        2881  -        4010 | 14.948 %  |
 =======================================================================================================================
 -----------------------------------------------------------------------------------------------------------------------
| ManySAT 2.2 - all threads statistics           DETERMINISTIC MODE ? N              initial limit export clauses :  10 |
|-----------------------------------------------------------------------------------------------------------------------|
|  Thread  | winner  |   #restarts   |   decisions   |  #conflicts   |   % shared cls  |  #extra units | #extra clauses |         
|----------|---------|---------------|---------------|---------------|-----------------|---------------|----------------|
|        0 |       x |            11 |         26504 |         12203 |            59 % |          3117 |           4084 |
|        1 |         |            10 |         22502 |         10942 |            61 % |          2644 |           4042 |
|        2 |         |            10 |         22529 |         11236 |            60 % |          2881 |           3935 |
|        3 |         |            11 |         23844 |         11363 |            62 % |          2999 |           4051 |
|----------------------------------------------------|---------------|-----------------|---------------|----------------|
|                                                    |         45744 |            60 % |         11641 |          16112 |
 -----------------------------------------------------------------------------------------------------------------------
 DETERMINISTIC_MODE? : NO 
 CONTROL POLICY?	 : STATIC (fixed Limit Export Clauses)  
 LIMIT EXPORT CLAUSES (PAIRWISE) : [identity] x 10

  ----------------------------------------         
   winner:  more statistics           
  ----------------------------------------         
  restarts              : 11
  conflicts             : 12203          (4585 /sec)
  decisions             : 26504          (0.42 % random) (9958 /sec)
  propagations          : 5168277        (1941797 /sec)
  conflict literals     : 571656         (29.80 % deleted)
  Memory used           : 62.00 MB
  CPU time              : 2.6616 s

UNSATISFIABLE
